(set-option :incremental false)
(set-logic ALL)
(declare-const BAV1 Bool)
(declare-const GEN4 Int)
(declare-const GEN3 Int)
(declare-const GEN2 Int)
(declare-const GEN1 Int)
(declare-fun a () (_ BitVec 32))
(assert (= BAV1 (= (_ bv0 5) (concat (_ bv0 3) ((_ extract 6 5) a)))))
(check-sat-assuming ((= (_ bv0 5) (concat (_ bv0 3) ((_ extract 6 5) a)))))
(get-model)